p cnf 6 30
6 -4 -3 2 0
-4 2 -1 0
-3 6 0
-3 1 -2 0
4 6 5 1 0
-2 -4 5 0
3 5 6 0
-4 1 -6 0
6 -4 2 0
4 -6 2 0
-4 -5 0
-5 -1 2 0
2 -6 -5 3 -4 1 0
-6 4 0
-6 3 -1 0
5 2 -4 -6 -3 0
-2 5 -3 0
1 5 3 6 4 2 0
-2 3 4 1 5 0
-4 -6 -2 0
-1 -5 -4 0
1 5 -6 -4 0
5 1 6 2 -3 0
5 4 3 6 -1 -2 0
-1 6 4 0
5 -2 -1 0
-3 2 0
2 1 5 -4 3 0
5 4 6 0
-6 1 0
